pair_coeff 1 1 0.1050000 3.750
pair_coeff 2 2 0.2100000 2.960
pair_coeff 3 3 0.1700000 3.000
pair_coeff 4 4 0.0660000 3.500
pair_coeff 5 5 0.0150000 2.420
bond_coeff 1 570.0000 1.229
bond_coeff 2 214.0000 1.327
bond_coeff 3 320.0000 1.410
bond_coeff 4 268.0000 1.529
bond_coeff 5 340.0000 1.090
angle_coeff 1 83.00000 116.90
angle_coeff 2 83.00000 123.40
angle_coeff 3 92.60000 111.55
angle_coeff 4 50.00000 109.50
angle_coeff 5 35.00000 109.50
angle_coeff 6 37.50000 110.70
angle_coeff 7 33.00000 107.80
dihedral_coeff 1 3.200000 -1 2
dihedral_coeff 2 1.400000 -1 1
dihedral_coeff 3 2.700000 -1 2
dihedral_coeff 4 0.3830000 1 3
dihedral_coeff 5 0.8000000 -1 1
dihedral_coeff 6 0.3830000 1 3
dihedral_coeff 7 0.1750000 1 2
dihedral_coeff 8 0.469000 1 5
dihedral_coeff 9 0 1 3
dihedral_coeff 10 0.2500000 1 1
dihedral_coeff 11 0.1560000 1 3
improper_coeff 1 10.50000 -1 2

